3 15
358 392 359 
0 88 78 106 96 25 15 43 13 1 91 99 86 1
1 110 100 95 85 71 61 69 4 23 70 31 22 3
2 100 90 43 33 77 67 36 64 94 58 55 24 1
3 67 57 75 65 92 82 80 96 85 73 79 91 1
4 14 4 85 75 55 45 38 38 53 74 96 84 2
5 44 34 53 43 53 43 46 78 10 51 17 57 1
6 11 1 66 56 12 2 86 98 51 95 34 67 2
7 104 94 89 79 65 55 71 4 48 21 51 33 3
8 32 22 83 73 25 15 90 49 50 89 40 52 1
9 58 48 26 16 95 85 95 24 21 44 21 12 2
10 14 4 60 50 15 5 31 36 12 4 96 85 2
11 41 31 50 40 58 48 51 32 80 62 15 27 2
12 17 7 44 34 70 60 54 80 87 85 46 2 2
13 70 60 18 8 75 65 3 98 93 89 63 91 3
14 96 86 42 32 81 71 97 59 34 41 42 96 2
